data/processed_heuristic-threshold/instances/1/6/ds_526_courier_2709/pairwise.tsp
NAME: ds_526_courier_2709
TYPE: TSP
COMMENT: nil
DIMENSION: 7
EDGE_WEIGHT_TYPE: EXPLICIT
EDGE_WEIGHT_FORMAT: FULL_MATRIX
EDGE_WEIGHT_SECTION
9999 2865 2475 3013 2749 101 2292 
2865 9999 626 741 916 2966 690 
2475 626 9999 565 458 2572 200 
3013 741 565 9999 346 3108 765 
2749 916 458 346 9999 2840 633 
101 2966 2572 3108 2840 9999 2390 
2292 690 200 765 633 2390 9999 
