data/processed_heuristic-threshold/instances/1/6/ds_526_courier_2709/pairwise.sol
7
0 5 6 2 4 3 1 
